
Gurobi 10.0.0 (win64) logging started Wed Apr 10 11:08:36 2024

Set parameter LogFile to value "C:\Users\ealvarezq\Documents\GitHub\Comillas\Models\JointResearch\05. Models\06.Benchmarking\L.Cont_Investments_per_hour\IEEE118_mod1_ByStages_nc200/openStarNet_IEEE118_mod1_ByStages_nc200.log"
Set parameter Method to value 2
Set parameter MIPFocus to value 1
Set parameter Presolve to value 2
Set parameter RINS to value 100
Set parameter MIPGap to value 0.01
Set parameter Threads to value 9
Set parameter TimeLimit to value 259200
Set parameter IterationLimit to value 760000000
Gurobi Optimizer version 10.0.0 build v10.0.0rc2 (win64)

CPU model: Intel(R) Core(TM) i7-8700 CPU @ 3.20GHz, instruction set [SSE2|AVX|AVX2]
Thread count: 6 physical cores, 12 logical processors, using up to 9 threads

Optimize a model with 284204 rows, 209892 columns and 731841 nonzeros
Model fingerprint: 0x39bf060d
Variable types: 209858 continuous, 34 integer (34 binary)
Coefficient statistics:
  Matrix range     [3e-04, 9e+03]
  Objective range  [1e+00, 1e+00]
  Bounds range     [1e-04, 3e+00]
  RHS range        [2e-04, 3e+00]
Presolve removed 192283 rows and 97050 columns
Presolve time: 1.61s
Presolved: 91921 rows, 112842 columns, 335870 nonzeros
Variable types: 112808 continuous, 34 integer (34 binary)
Root relaxation presolved: 91921 rows, 112842 columns, 335870 nonzeros

Root barrier log...

Ordering time: 0.03s

Barrier statistics:
 Dense cols : 34
 AA' NZ     : 4.165e+05
 Factor NZ  : 1.645e+06 (roughly 100 MB of memory)
 Factor Ops : 3.627e+07 (less than 1 second per iteration)
 Threads    : 8

                  Objective                Residual
Iter       Primal          Dual         Primal    Dual     Compl     Time
   0   8.98104612e+06 -2.30117399e+09  1.57e+01 1.87e+03  3.78e+04     2s
   1   2.21207505e+06 -8.89144240e+08  3.52e+00 8.94e-08  7.89e+03     2s
   2   5.87238578e+05 -3.32561260e+08  6.09e-01 4.95e-08  1.77e+03     2s
   3   3.47308204e+05 -8.23972180e+07  1.53e-01 1.94e-08  3.70e+02     3s
   4   2.58468158e+05 -9.64138966e+06  1.93e-02 1.11e-09  3.84e+01     3s
   5   1.95952940e+05 -2.87018605e+06  5.87e-03 5.97e-10  1.15e+01     3s
   6   1.35279995e+05 -2.22216492e+06  3.07e-03 4.75e-10  8.78e+00     3s
   7   9.38783433e+04 -6.43043320e+05  1.64e-03 9.46e-11  2.73e+00     3s
   8   2.65889230e+04 -1.19924654e+05  2.01e-04 1.82e-11  5.41e-01     3s
   9   1.73693928e+04 -8.56471567e+04  1.14e-04 1.46e-11  3.80e-01     3s
  10   1.18965390e+04 -6.41732841e+04  6.75e-05 1.22e-11  2.81e-01     3s
  11   6.40932388e+03 -1.45347599e+04  2.55e-05 6.59e-12  7.73e-02     3s
  12   4.00952758e+03 -4.62174993e+03  1.17e-05 5.40e-12  3.19e-02     3s
  13   3.32807510e+03 -2.47929241e+03  8.35e-06 1.15e-11  2.14e-02     3s
  14   2.51631207e+03 -1.24376010e+03  4.91e-06 1.15e-11  1.39e-02     3s
  15   2.12033381e+03 -2.89184067e+02  3.36e-06 4.19e-12  8.90e-03     3s
  16   1.84196273e+03  2.51819817e+02  2.34e-06 1.97e-12  5.87e-03     3s
  17   1.53268450e+03  6.93126527e+02  1.24e-06 8.34e-12  3.10e-03     3s
  18   1.34771911e+03  9.58064904e+02  6.20e-07 3.52e-12  1.44e-03     3s
  19   1.25733367e+03  1.02986722e+03  3.32e-07 2.19e-12  8.40e-04     3s
  20   1.21564396e+03  1.05736232e+03  2.03e-07 3.81e-12  5.84e-04     3s
  21   1.19742878e+03  1.08708640e+03  1.47e-07 5.47e-12  4.07e-04     4s
  22   1.17928638e+03  1.10548248e+03  9.25e-08 2.63e-12  2.72e-04     4s
  23   1.16393412e+03  1.12605522e+03  4.68e-08 3.63e-12  1.40e-04     4s
  24   1.15665658e+03  1.12869586e+03  2.58e-08 2.39e-12  1.03e-04     4s
  25   1.15286579e+03  1.13774217e+03  1.51e-08 4.81e-12  5.58e-05     4s
  26   1.15058574e+03  1.14073013e+03  8.80e-09 2.47e-12  3.64e-05     4s
  27   1.14890472e+03  1.14336327e+03  4.06e-09 8.33e-12  2.05e-05     4s
  28   1.14802256e+03  1.14487329e+03  1.83e-09 8.55e-12  1.16e-05     4s
  29   1.14760960e+03  1.14566725e+03  8.28e-10 5.91e-12  7.17e-06     4s
  30   1.14742732e+03  1.14637763e+03  3.76e-10 2.38e-12  3.88e-06     4s
  31   1.14732235e+03  1.14678724e+03  1.62e-10 1.67e-12  1.98e-06     4s
  32   1.14728131e+03  1.14710626e+03  2.63e-10 7.59e-12  6.46e-07     4s
  33   1.14724544e+03  1.14722012e+03  4.83e-10 5.55e-12  9.34e-08     4s
  34   1.14723790e+03  1.14723517e+03  4.22e-10 8.27e-12  1.01e-08     5s
  35   1.14723697e+03  1.14723672e+03  2.36e-09 2.50e-12  9.16e-10     5s
  36   1.14723688e+03  1.14723687e+03  1.18e-09 6.19e-12  5.20e-11     5s

Barrier solved model in 36 iterations and 4.67 seconds (4.54 work units)
Optimal objective 1.14723688e+03


Root crossover log...

   19817 DPushes remaining with DInf 1.8059377e-06                 5s
       0 DPushes remaining with DInf 0.0000000e+00                 6s

    2329 PPushes remaining with PInf 2.1604654e-06                 6s
       0 PPushes remaining with PInf 0.0000000e+00                 6s

  Push phase complete: Pinf 0.0000000e+00, Dinf 3.0212419e-11      6s


Root simplex log...

Iteration    Objective       Primal Inf.    Dual Inf.      Time
    7189    1.1472369e+03   0.000000e+00   0.000000e+00      7s
    7189    1.1472369e+03   0.000000e+00   0.000000e+00      7s

Root relaxation: objective 1.147237e+03, 7189 iterations, 4.78 seconds (5.02 work units)

    Nodes    |    Current Node    |     Objective Bounds      |     Work
 Expl Unexpl |  Obj  Depth IntInf | Incumbent    BestBd   Gap | It/Node Time

     0     0 1147.23687    0   23          - 1147.23687      -     -    7s
H    0     0                    7507.1548961 1147.23687  84.7%     -   12s
H    0     0                    3148.3662090 1147.23687  63.6%     -   18s
     0     0 1166.84708    0   23 3148.36621 1166.84708  62.9%     -   34s
H    0     0                    1357.5968222 1166.84708  14.1%     -   39s
     0     0 1166.99009    0   23 1357.59682 1166.99009  14.0%     -   40s
     0     0 1168.23288    0   24 1357.59682 1168.23288  13.9%     -   44s
     0     0 1168.24884    0   24 1357.59682 1168.24884  13.9%     -   45s
     0     0 1168.24885    0   24 1357.59682 1168.24885  13.9%     -   45s
     0     0 1168.76498    0   24 1357.59682 1168.76498  13.9%     -   51s
     0     0 1168.77126    0   24 1357.59682 1168.77126  13.9%     -   52s
     0     0 1168.77149    0   24 1357.59682 1168.77149  13.9%     -   52s
     0     0 1168.85223    0   24 1357.59682 1168.85223  13.9%     -   57s
     0     0 1168.85417    0   24 1357.59682 1168.85417  13.9%     -   58s
     0     0 1168.89102    0   24 1357.59682 1168.89102  13.9%     -   62s
H    0     0                    1305.6142402 1168.89102  10.5%     - 1675s
     0     2 1168.89102    0   24 1305.61424 1168.89102  10.5%     - 1678s
     1     4 1204.96214    1   23 1305.61424 1168.96339  10.5% 10595 1693s
     3     8 1226.67445    2   22 1305.61424 1189.48269  8.89%  6206 1715s
     7    14     cutoff    3      1305.61424 1201.04368  8.01%  6172 1758s
    15    17 1213.74471    4   20 1305.61424 1207.68906  7.50%  5352 1808s
    24    20 1221.39982    5   18 1305.61424 1213.77855  7.03%  5034 1900s
    33    27 1232.22946    6   18 1305.61424 1213.77855  7.03%  6281 1946s
    42    34 1235.95351    7   18 1305.61424 1213.77855  7.03%  6275 1986s
    51    40 1244.71797    8   16 1305.61424 1213.77855  7.03%  5905 2020s
    61    52 1255.58635    9   16 1305.61424 1213.77855  7.03%  5366 2043s
    75    57 1282.31694   11   14 1305.61424 1213.77855  7.03%  4701 2065s
    86    59 1286.47807   12   13 1305.61424 1213.77855  7.03%  4359 2088s
    98    55 1300.63860   13   12 1305.61424 1213.77855  7.03%  4041 2130s
   114    55 1304.59978   14   11 1305.61424 1213.77855  7.03%  3912 2152s
   131    61     cutoff   16      1305.61424 1221.51459  6.44%  3619 2202s
   147    59     cutoff    6      1305.61424 1232.30434  5.61%  3618 2224s
   171    66 1241.08977    7   17 1305.61424 1232.47844  5.60%  3283 2249s
   190    69 1251.86088    9   16 1305.61424 1232.47844  5.60%  3152 2278s
   211    66 1278.09586   11   12 1305.61424 1232.47844  5.60%  3031 2310s
   234    71     cutoff   12      1305.61424 1232.47844  5.60%  2939 2348s
   255    78 1276.76192   11   13 1305.61424 1232.47844  5.60%  2905 2383s
   286    88 1285.04672   13   11 1305.61424 1232.47844  5.60%  2735 2417s
   328    86 1297.90890   17    4 1305.61424 1232.47844  5.60%  2550 2450s
   364    81 1303.52144   20    2 1305.61424 1241.10284  4.94%  2435 2510s
   401    92 1268.42867    8   16 1305.61424 1241.10284  4.94%  2452 2548s
   430   101     cutoff   11      1305.61424 1241.10284  4.94%  2419 2605s
   473    98 1288.53404   10   13 1305.61424 1241.10284  4.94%  2350 2665s
   511   103 1302.05095   12   10 1305.61424 1258.61124  3.60%  2309 2712s
   550    96 1262.62087    9   15 1305.61424 1258.62381  3.60%  2272 2767s
   605   101 1276.24915   10   13 1305.61424 1258.62381  3.60%  2211 2822s
   649    96     cutoff   12      1305.61424 1258.62381  3.60%  2160 2883s
   696    88 1298.34244   13    9 1305.61424 1265.78676  3.05%  2124 2957s
H  739    88                    1305.3641986 1265.78676  3.03%  2113 2957s
   740    75 1297.92602   11   13 1305.36420 1265.78676  3.03%  2118 3027s
   793    72 1299.60591   12   11 1305.36420 1270.46968  2.67%  2102 3249s
   850    74     cutoff   12      1305.36420 1275.39333  2.30%  2058 3334s
   936    53     cutoff   11      1305.36420 1285.59040  1.51%  1995 3410s
  1017    29     cutoff   11      1305.36420 1287.72066  1.35%  1963 3481s
  1080     8     cutoff    7      1305.36420 1292.57295  0.98%  1961 3535s

Cutting planes:
  Gomory: 2
  Implied bound: 2
  MIR: 960
  Flow cover: 42
  RLT: 5
  Relax-and-lift: 1

Explored 1132 nodes (2215720 simplex iterations) in 3536.18 seconds (6628.54 work units)
Thread count was 9 (of 12 available processors)

Solution count 5: 1305.36 1305.61 1357.6 ... 7507.15

Optimal solution found (tolerance 1.00e-02)
Best objective 1.305364198572e+03, best bound 1.295903216912e+03, gap 0.7248%

Gurobi 10.0.0 (win64) logging started Wed Apr 10 12:07:45 2024

Set parameter LogFile to value "C:\Users\ealvarezq\Documents\GitHub\Comillas\Models\JointResearch\05. Models\06.Benchmarking\L.Cont_Investments_per_hour\IEEE118_mod1_ByStages_nc200/openStarNet_IEEE118_mod1_ByStages_nc200.log"
Set parameter Method to value 2
Set parameter MIPFocus to value 1
Set parameter Presolve to value 2
Set parameter RINS to value 100
Set parameter MIPGap to value 0.01
Set parameter Threads to value 9
Set parameter TimeLimit to value 259200
Set parameter IterationLimit to value 760000000
Gurobi Optimizer version 10.0.0 build v10.0.0rc2 (win64)

CPU model: Intel(R) Core(TM) i7-8700 CPU @ 3.20GHz, instruction set [SSE2|AVX|AVX2]
Thread count: 6 physical cores, 12 logical processors, using up to 9 threads

Optimize a model with 284204 rows, 209858 columns and 704607 nonzeros
Model fingerprint: 0xa48c5ea8
Coefficient statistics:
  Matrix range     [3e-04, 9e+03]
  Objective range  [1e+00, 1e+00]
  Bounds range     [1e-04, 3e+00]
  RHS range        [2e-04, 3e+02]
Presolve removed 211346 rows and 91631 columns
Presolve time: 0.40s
Presolved: 72858 rows, 118653 columns, 283522 nonzeros

Ordering time: 0.02s

Barrier statistics:
 AA' NZ     : 2.396e+05
 Factor NZ  : 9.597e+05 (roughly 80 MB of memory)
 Factor Ops : 1.389e+07 (less than 1 second per iteration)
 Threads    : 9

                  Objective                Residual
Iter       Primal          Dual         Primal    Dual     Compl     Time
   0   1.58416174e+07 -1.09381209e+09  9.60e+01 6.08e+01  1.71e+04     1s
   1   1.91088511e+06 -3.36717337e+08  1.01e+01 1.59e-12  2.34e+03     1s
   2   4.71442667e+05 -6.14275711e+07  1.49e+00 1.59e-12  3.36e+02     1s
   3   2.27631026e+05 -7.84407066e+06  3.80e-02 1.25e-12  3.22e+01     1s
   4   1.44669904e+05 -1.21393340e+06  4.51e-03 5.68e-12  5.27e+00     1s
   5   8.27621257e+04 -3.88479149e+05  1.79e-03 2.73e-12  1.82e+00     1s
   6   3.27850286e+04 -1.14278613e+05  5.75e-04 4.55e-13  5.68e-01     1s
   7   1.73355481e+04 -3.25753861e+04  2.55e-04 2.55e-13  1.93e-01     1s
   8   8.56222941e+03 -1.30188652e+04  9.51e-05 3.92e-13  8.33e-02     1s
   9   5.48603889e+03 -5.96699407e+03  4.99e-05 2.13e-13  4.42e-02     1s
  10   4.02073890e+03 -2.41956401e+03  3.07e-05 2.73e-13  2.48e-02     1s
  11   3.10544765e+03 -9.42955463e+02  1.96e-05 2.35e-13  1.56e-02     1s
  12   2.35690059e+03  4.56705761e+01  1.11e-05 2.49e-13  8.92e-03     1s
  13   1.99543521e+03  5.54444994e+02  7.03e-06 3.19e-13  5.56e-03     1s
  14   1.74642259e+03  8.76806771e+02  4.38e-06 2.29e-13  3.35e-03     1s
  15   1.53585320e+03  1.13608570e+03  2.21e-06 4.07e-13  1.54e-03     1s
  16   1.43016381e+03  1.21324985e+03  1.17e-06 2.10e-13  8.37e-04     1s
  17   1.37834256e+03  1.24894150e+03  6.73e-07 2.75e-13  4.99e-04     1s
  18   1.34045346e+03  1.27430416e+03  3.15e-07 2.76e-13  2.55e-04     1s
  19   1.32652006e+03  1.28273290e+03  1.83e-07 4.76e-13  1.69e-04     1s
  20   1.31805036e+03  1.29043786e+03  1.08e-07 4.22e-13  1.07e-04     1s
  21   1.31060990e+03  1.29930527e+03  4.29e-08 2.87e-13  4.36e-05     1s
  22   1.30668473e+03  1.30388077e+03  1.02e-08 4.28e-13  1.08e-05     1s
  23   1.30579940e+03  1.30509454e+03  3.22e-09 3.05e-13  2.72e-06     1s
  24   1.30554752e+03  1.30525612e+03  1.32e-09 2.53e-13  1.12e-06     1s
  25   1.30542864e+03  1.30531173e+03  4.47e-10 3.54e-13  4.51e-07     1s
  26   1.30537005e+03  1.30534387e+03  7.79e-10 2.31e-13  1.01e-07     1s
  27   1.30536428e+03  1.30536245e+03  4.36e-11 4.49e-13  7.08e-09     1s
  28   1.30536420e+03  1.30536420e+03  7.19e-11 3.76e-13  7.12e-12     1s

Barrier solved model in 28 iterations and 1.47 seconds (1.42 work units)
Optimal objective 1.30536420e+03

Crossover log...

   20790 DPushes remaining with DInf 0.0000000e+00                 2s
       0 DPushes remaining with DInf 0.0000000e+00                 2s

     780 PPushes remaining with PInf 0.0000000e+00                 2s
       0 PPushes remaining with PInf 0.0000000e+00                 2s

  Push phase complete: Pinf 0.0000000e+00, Dinf 3.2470764e-12      2s

Extra simplex iterations after uncrush: 2
Iteration    Objective       Primal Inf.    Dual Inf.      Time
    5494    1.3053642e+03   0.000000e+00   0.000000e+00      2s

Solved in 5494 iterations and 2.29 seconds (2.19 work units)
Optimal objective  1.305364199e+03

Gurobi 11.0.0 (linux64) logging started Wed Aug  7 01:21:15 2024

Set parameter LogFile to value "/lustre1/scratch/348/vsc34888/JointResearch/05.Models/06.Benchmarking/L.Cont_Investments_per_hour/IEEE118_mod1_ByStages_nc200/openStarNet_IEEE118_mod1_ByStages_nc200.log"
Set parameter Method to value 2
Set parameter MIPFocus to value 1
Set parameter Presolve to value 2
Set parameter RINS to value 100
Set parameter MIPGap to value 0.01
Set parameter Threads to value 36
Set parameter TimeLimit to value 259200
Set parameter IterationLimit to value 760000000
Gurobi Optimizer version 11.0.0 build v11.0.0rc2 (linux64 - "Rocky Linux 8.9 (Green Obsidian)")

CPU model: Intel(R) Xeon(R) Gold 6240 CPU @ 2.60GHz, instruction set [SSE2|AVX|AVX2|AVX512]
Thread count: 36 physical cores, 36 logical processors, using up to 36 threads

Optimize a model with 284203 rows, 209858 columns and 704606 nonzeros
Model fingerprint: 0xc93c2eda
Coefficient statistics:
  Matrix range     [3e-04, 9e+03]
  Objective range  [1e+00, 1e+00]
  Bounds range     [1e-04, 3e+00]
  RHS range        [2e-04, 3e+00]
Presolve removed 215347 rows and 98595 columns
Presolve time: 0.44s
Presolved: 68856 rows, 114422 columns, 274502 nonzeros

Ordering time: 0.02s

Barrier statistics:
 AA' NZ     : 2.504e+05
 Factor NZ  : 9.112e+05 (roughly 80 MB of memory)
 Factor Ops : 1.352e+07 (less than 1 second per iteration)
 Threads    : 36

                  Objective                Residual
Iter       Primal          Dual         Primal    Dual     Compl     Time
   0   1.77106180e+07 -1.48919160e+09  9.70e+01 9.42e+01  3.12e+04     1s
   1   1.80851505e+06 -5.31029102e+08  8.38e+00 2.84e-12  3.85e+03     1s
   2   5.00788995e+05 -1.03305759e+08  1.28e+00 2.79e-12  5.84e+02     1s
   3   2.70391812e+05 -1.35612710e+07  4.14e-02 2.39e-12  5.75e+01     1s
   4   1.97766043e+05 -1.94338387e+06  2.06e-03 3.18e-12  8.56e+00     1s
   5   1.25268852e+05 -7.71217789e+05  8.89e-04 1.36e-12  3.58e+00     1s
   6   7.87616828e+04 -2.71464428e+05  4.37e-04 4.55e-13  1.40e+00     1s
   7   4.85884943e+04 -1.15439027e+05  2.14e-04 4.55e-13  6.54e-01     1s
   8   3.53569656e+04 -5.53271937e+04  1.28e-04 4.55e-13  3.62e-01     1s
   9   2.72565028e+04 -1.33104402e+04  7.88e-05 3.41e-13  1.62e-01     1s
  10   2.19648817e+04 -1.50068300e+03  4.81e-05 4.55e-13  9.36e-02     1s
  11   1.78918624e+04  5.95667998e+03  2.62e-05 4.55e-13  4.76e-02     1s
  12   1.58192486e+04  9.45798175e+03  1.58e-05 4.55e-13  2.54e-02     1s
  13   1.45808005e+04  1.07856973e+04  9.53e-06 4.55e-13  1.51e-02     1s
  14   1.40202709e+04  1.13541660e+04  6.82e-06 4.55e-13  1.06e-02     1s
  15   1.36278505e+04  1.17445298e+04  4.96e-06 4.55e-13  7.51e-03     1s
  16   1.32695433e+04  1.19787641e+04  3.32e-06 2.27e-13  5.15e-03     1s
  17   1.29848641e+04  1.21873822e+04  2.03e-06 4.55e-13  3.18e-03     1s
  18   1.28150514e+04  1.23423279e+04  1.29e-06 4.55e-13  1.89e-03     1s
  19   1.27252808e+04  1.24034523e+04  9.05e-07 4.55e-13  1.28e-03     1s
  20   1.26015741e+04  1.24568330e+04  3.75e-07 4.55e-13  5.77e-04     1s
  21   1.25620083e+04  1.24817083e+04  2.09e-07 4.55e-13  3.20e-04     1s
  22   1.25329772e+04  1.25002545e+04  9.01e-08 4.55e-13  1.31e-04     1s
  23   1.25146301e+04  1.25071447e+04  1.61e-08 4.55e-13  2.99e-05     1s
  24   1.25119862e+04  1.25091548e+04  6.46e-09 4.55e-13  1.13e-05     1s
  25   1.25108774e+04  1.25097023e+04  2.60e-09 9.09e-13  4.69e-06     1s
  26   1.25103410e+04  1.25099449e+04  2.60e-09 2.27e-13  1.58e-06     1s
  27   1.25101550e+04  1.25100716e+04  8.38e-10 4.55e-13  3.33e-07     1s
  28   1.25101014e+04  1.25100953e+04  2.21e-09 4.55e-13  2.45e-08     1s
  29   1.25101003e+04  1.25101000e+04  1.13e-09 4.55e-13  1.28e-09     1s
  30   1.25101003e+04  1.25101003e+04  4.29e-10 4.55e-13  3.75e-11     1s

Barrier solved model in 30 iterations and 1.46 seconds (1.39 work units)
Optimal objective 1.25101003e+04

Crossover log...

   20079 DPushes remaining with DInf 0.0000000e+00                 2s
       0 DPushes remaining with DInf 0.0000000e+00                 2s

    1575 PPushes remaining with PInf 0.0000000e+00                 2s
       0 PPushes remaining with PInf 0.0000000e+00                 2s

  Push phase complete: Pinf 0.0000000e+00, Dinf 4.2712550e-11      2s

Iteration    Objective       Primal Inf.    Dual Inf.      Time
    7063    1.2510100e+04   0.000000e+00   0.000000e+00      2s

Solved in 7063 iterations and 2.17 seconds (1.72 work units)
Optimal objective  1.251010028e+04

Gurobi 11.0.0 (linux64) logging started Wed Aug  7 01:22:31 2024

Set parameter LogFile to value "/lustre1/scratch/348/vsc34888/JointResearch/05.Models/06.Benchmarking/L.Cont_Investments_per_hour/IEEE118_mod1_ByStages_nc200/openStarNet_IEEE118_mod1_ByStages_nc200.log"
Set parameter Method to value 2
Set parameter MIPFocus to value 1
Set parameter Presolve to value 2
Set parameter RINS to value 100
Set parameter MIPGap to value 0.01
Set parameter Threads to value 36
Set parameter TimeLimit to value 259200
Set parameter IterationLimit to value 760000000
Gurobi Optimizer version 11.0.0 build v11.0.0rc2 (linux64 - "Rocky Linux 8.9 (Green Obsidian)")

CPU model: Intel(R) Xeon(R) Gold 6240 CPU @ 2.60GHz, instruction set [SSE2|AVX|AVX2|AVX512]
Thread count: 36 physical cores, 36 logical processors, using up to 36 threads

Optimize a model with 284203 rows, 209858 columns and 704606 nonzeros
Model fingerprint: 0xc93c2eda
Coefficient statistics:
  Matrix range     [3e-04, 9e+03]
  Objective range  [1e+00, 1e+00]
  Bounds range     [1e-04, 3e+00]
  RHS range        [2e-04, 3e+00]
Presolve removed 215347 rows and 98595 columns
Presolve time: 0.43s
Presolved: 68856 rows, 114422 columns, 274502 nonzeros

Ordering time: 0.02s

Barrier statistics:
 AA' NZ     : 2.504e+05
 Factor NZ  : 9.112e+05 (roughly 80 MB of memory)
 Factor Ops : 1.352e+07 (less than 1 second per iteration)
 Threads    : 36

                  Objective                Residual
Iter       Primal          Dual         Primal    Dual     Compl     Time
   0   1.77106180e+07 -1.48919160e+09  9.70e+01 9.42e+01  3.12e+04     1s
   1   1.80851505e+06 -5.31029102e+08  8.38e+00 2.84e-12  3.85e+03     1s
   2   5.00788995e+05 -1.03305759e+08  1.28e+00 2.79e-12  5.84e+02     1s
   3   2.70391812e+05 -1.35612710e+07  4.14e-02 2.39e-12  5.75e+01     1s
   4   1.97766043e+05 -1.94338387e+06  2.06e-03 3.18e-12  8.56e+00     1s
   5   1.25268852e+05 -7.71217789e+05  8.89e-04 1.36e-12  3.58e+00     1s
   6   7.87616828e+04 -2.71464428e+05  4.37e-04 4.55e-13  1.40e+00     1s
   7   4.85884943e+04 -1.15439027e+05  2.14e-04 4.55e-13  6.54e-01     1s
   8   3.53569656e+04 -5.53271937e+04  1.28e-04 4.55e-13  3.62e-01     1s
   9   2.72565028e+04 -1.33104402e+04  7.88e-05 3.41e-13  1.62e-01     1s
  10   2.19648817e+04 -1.50068300e+03  4.81e-05 4.55e-13  9.36e-02     1s
  11   1.78918624e+04  5.95667998e+03  2.62e-05 4.55e-13  4.76e-02     1s
  12   1.58192486e+04  9.45798175e+03  1.58e-05 4.55e-13  2.54e-02     1s
  13   1.45808005e+04  1.07856973e+04  9.53e-06 4.55e-13  1.51e-02     1s
  14   1.40202709e+04  1.13541660e+04  6.82e-06 4.55e-13  1.06e-02     1s
  15   1.36278505e+04  1.17445298e+04  4.96e-06 4.55e-13  7.51e-03     1s
  16   1.32695433e+04  1.19787641e+04  3.32e-06 2.27e-13  5.15e-03     1s
  17   1.29848641e+04  1.21873822e+04  2.03e-06 4.55e-13  3.18e-03     1s
  18   1.28150514e+04  1.23423279e+04  1.29e-06 4.55e-13  1.89e-03     1s
  19   1.27252808e+04  1.24034523e+04  9.05e-07 4.55e-13  1.28e-03     1s
  20   1.26015741e+04  1.24568330e+04  3.75e-07 4.55e-13  5.77e-04     1s
  21   1.25620083e+04  1.24817083e+04  2.09e-07 4.55e-13  3.20e-04     1s
  22   1.25329772e+04  1.25002545e+04  9.01e-08 4.55e-13  1.31e-04     1s
  23   1.25146301e+04  1.25071447e+04  1.61e-08 4.55e-13  2.99e-05     1s
  24   1.25119862e+04  1.25091548e+04  6.46e-09 4.55e-13  1.13e-05     1s
  25   1.25108774e+04  1.25097023e+04  2.60e-09 9.09e-13  4.69e-06     1s
  26   1.25103410e+04  1.25099449e+04  2.60e-09 2.27e-13  1.58e-06     1s
  27   1.25101550e+04  1.25100716e+04  8.38e-10 4.55e-13  3.33e-07     1s
  28   1.25101014e+04  1.25100953e+04  2.21e-09 4.55e-13  2.45e-08     1s
  29   1.25101003e+04  1.25101000e+04  1.13e-09 4.55e-13  1.28e-09     1s
  30   1.25101003e+04  1.25101003e+04  4.29e-10 4.55e-13  3.75e-11     1s

Barrier solved model in 30 iterations and 1.37 seconds (1.39 work units)
Optimal objective 1.25101003e+04

Crossover log...

   20079 DPushes remaining with DInf 0.0000000e+00                 1s
       0 DPushes remaining with DInf 0.0000000e+00                 2s

    1575 PPushes remaining with PInf 0.0000000e+00                 2s
       0 PPushes remaining with PInf 0.0000000e+00                 2s

  Push phase complete: Pinf 0.0000000e+00, Dinf 4.2712550e-11      2s

Iteration    Objective       Primal Inf.    Dual Inf.      Time
    7063    1.2510100e+04   0.000000e+00   0.000000e+00      2s

Solved in 7063 iterations and 2.02 seconds (1.72 work units)
Optimal objective  1.251010028e+04

Gurobi 11.0.0 (linux64) logging started Sun Sep 22 11:08:22 2024

Set parameter LogFile to value "/lustre1/scratch/348/vsc34888/JointResearch/05.Models/06.Benchmarking/L.Cont_Investments_per_hour/IEEE118_mod1_ByStages_nc200/openStarNet_IEEE118_mod1_ByStages_nc200.log"
Set parameter Method to value 2
Set parameter MIPFocus to value 1
Set parameter Presolve to value 2
Set parameter RINS to value 100
Set parameter MIPGap to value 0.01
Set parameter Threads to value 36
Set parameter TimeLimit to value 259200
Set parameter IterationLimit to value 760000000
Gurobi Optimizer version 11.0.0 build v11.0.0rc2 (linux64 - "Rocky Linux 8.9 (Green Obsidian)")

CPU model: Intel(R) Xeon(R) Gold 6240 CPU @ 2.60GHz, instruction set [SSE2|AVX|AVX2|AVX512]
Thread count: 36 physical cores, 36 logical processors, using up to 36 threads

Optimize a model with 284203 rows, 209920 columns and 704730 nonzeros
Model fingerprint: 0xe1e17e72
Coefficient statistics:
  Matrix range     [3e-04, 9e+03]
  Objective range  [1e+00, 1e+00]
  Bounds range     [1e-04, 3e+00]
  RHS range        [2e-04, 3e+00]
Presolve removed 215393 rows and 98596 columns
Presolve time: 0.43s
Presolved: 68810 rows, 114486 columns, 274528 nonzeros

Ordering time: 0.02s

Barrier statistics:
 AA' NZ     : 2.417e+05
 Factor NZ  : 8.910e+05 (roughly 80 MB of memory)
 Factor Ops : 1.271e+07 (less than 1 second per iteration)
 Threads    : 36

                  Objective                Residual
Iter       Primal          Dual         Primal    Dual     Compl     Time
   0   1.71449535e+07 -1.58475044e+09  9.49e+01 9.25e+01  3.18e+04     1s
   1   1.66307918e+06 -5.41231128e+08  7.69e+00 2.67e-12  3.79e+03     1s
   2   5.59771046e+05 -1.04464988e+08  1.63e+00 2.50e-12  6.40e+02     1s
   3   2.68640082e+05 -1.58532923e+07  5.19e-02 3.01e-12  6.77e+01     1s
   4   2.01737033e+05 -2.30031622e+06  3.98e-03 2.96e-12  1.00e+01     1s
   5   1.43224412e+05 -7.62414926e+05  1.74e-03 1.14e-12  3.62e+00     1s
   6   9.45926373e+04 -3.52738407e+05  9.56e-04 5.68e-13  1.79e+00     1s
   7   6.31765453e+04 -1.67325180e+05  5.46e-04 4.55e-13  9.19e-01     1s
   8   4.27396868e+04 -7.91391326e+04  3.11e-04 2.27e-13  4.86e-01     1s
   9   3.07361096e+04 -1.80129304e+04  1.84e-04 4.55e-13  1.94e-01     1s
  10   2.39717772e+04 -4.70161839e+03  1.15e-04 2.27e-13  1.14e-01     1s
  11   1.91928504e+04  4.54985935e+03  6.98e-05 4.55e-13  5.84e-02     1s
  12   1.55582892e+04  7.71303530e+03  3.67e-05 2.27e-13  3.13e-02     1s
  13   1.37810276e+04  9.22091060e+03  2.16e-05 2.27e-13  1.82e-02     1s
  14   1.29498544e+04  9.94826403e+03  1.45e-05 2.27e-13  1.20e-02     1s
  15   1.23790441e+04  1.03323452e+04  9.70e-06 4.55e-13  8.16e-03     1s
  16   1.20353511e+04  1.06621557e+04  6.90e-06 4.55e-13  5.47e-03     1s
  17   1.17328978e+04  1.08404227e+04  4.49e-06 4.55e-13  3.56e-03     1s
  18   1.14485031e+04  1.09599640e+04  2.37e-06 4.55e-13  1.95e-03     1s
  19   1.13421938e+04  1.10310399e+04  1.51e-06 4.55e-13  1.24e-03     1s
  20   1.12534714e+04  1.10779088e+04  8.17e-07 4.55e-13  7.00e-04     1s
  21   1.12235894e+04  1.11060449e+04  5.89e-07 4.55e-13  4.69e-04     1s
  22   1.11816764e+04  1.11319924e+04  2.68e-07 4.55e-13  1.98e-04     1s
  23   1.11563066e+04  1.11389742e+04  8.39e-08 4.55e-13  6.91e-05     1s
  24   1.11479664e+04  1.11418378e+04  2.49e-08 9.09e-13  2.44e-05     1s
  25   1.11450740e+04  1.11432791e+04  5.49e-09 4.55e-13  7.16e-06     1s
  26   1.11446626e+04  1.11438704e+04  3.00e-09 4.55e-13  3.16e-06     1s
  27   1.11442872e+04  1.11440986e+04  7.68e-10 4.55e-13  7.52e-07     1s
  28   1.11441789e+04  1.11441417e+04  1.30e-09 4.55e-13  1.48e-07     2s
  29   1.11441510e+04  1.11441493e+04  3.19e-09 4.55e-13  6.80e-09     2s
  30   1.11441502e+04  1.11441500e+04  1.06e-09 4.55e-13  9.19e-10     2s
  31   1.11441502e+04  1.11441502e+04  2.94e-09 4.55e-13  1.06e-11     2s

Barrier solved model in 31 iterations and 1.61 seconds (1.43 work units)
Optimal objective 1.11441502e+04

Crossover log...

   20077 DPushes remaining with DInf 0.0000000e+00                 2s
       0 DPushes remaining with DInf 0.0000000e+00                 2s

    1554 PPushes remaining with PInf 0.0000000e+00                 2s
       0 PPushes remaining with PInf 0.0000000e+00                 2s

  Push phase complete: Pinf 0.0000000e+00, Dinf 2.8099717e-11      2s

Extra simplex iterations after uncrush: 1
Iteration    Objective       Primal Inf.    Dual Inf.      Time
    6996    1.1144150e+04   0.000000e+00   0.000000e+00      2s

Solved in 6996 iterations and 2.47 seconds (1.87 work units)
Optimal objective  1.114415015e+04

Gurobi 11.0.0 (linux64) logging started Sun Sep 22 11:09:36 2024

Set parameter LogFile to value "/lustre1/scratch/348/vsc34888/JointResearch/05.Models/06.Benchmarking/L.Cont_Investments_per_hour/IEEE118_mod1_ByStages_nc200/openStarNet_IEEE118_mod1_ByStages_nc200.log"
Set parameter Method to value 2
Set parameter MIPFocus to value 1
Set parameter Presolve to value 2
Set parameter RINS to value 100
Set parameter MIPGap to value 0.01
Set parameter Threads to value 36
Set parameter TimeLimit to value 259200
Set parameter IterationLimit to value 760000000
Gurobi Optimizer version 11.0.0 build v11.0.0rc2 (linux64 - "Rocky Linux 8.9 (Green Obsidian)")

CPU model: Intel(R) Xeon(R) Gold 6240 CPU @ 2.60GHz, instruction set [SSE2|AVX|AVX2|AVX512]
Thread count: 36 physical cores, 36 logical processors, using up to 36 threads

Optimize a model with 284203 rows, 209920 columns and 704730 nonzeros
Model fingerprint: 0xe1e17e72
Coefficient statistics:
  Matrix range     [3e-04, 9e+03]
  Objective range  [1e+00, 1e+00]
  Bounds range     [1e-04, 3e+00]
  RHS range        [2e-04, 3e+00]
Presolve removed 215393 rows and 98596 columns
Presolve time: 0.43s
Presolved: 68810 rows, 114486 columns, 274528 nonzeros

Ordering time: 0.02s

Barrier statistics:
 AA' NZ     : 2.417e+05
 Factor NZ  : 8.910e+05 (roughly 80 MB of memory)
 Factor Ops : 1.271e+07 (less than 1 second per iteration)
 Threads    : 36

                  Objective                Residual
Iter       Primal          Dual         Primal    Dual     Compl     Time
   0   1.71449535e+07 -1.58475044e+09  9.49e+01 9.25e+01  3.18e+04     1s
   1   1.66307918e+06 -5.41231128e+08  7.69e+00 2.67e-12  3.79e+03     1s
   2   5.59771046e+05 -1.04464988e+08  1.63e+00 2.50e-12  6.40e+02     1s
   3   2.68640082e+05 -1.58532923e+07  5.19e-02 3.01e-12  6.77e+01     1s
   4   2.01737033e+05 -2.30031622e+06  3.98e-03 2.96e-12  1.00e+01     1s
   5   1.43224412e+05 -7.62414926e+05  1.74e-03 1.14e-12  3.62e+00     1s
   6   9.45926373e+04 -3.52738407e+05  9.56e-04 5.68e-13  1.79e+00     1s
   7   6.31765453e+04 -1.67325180e+05  5.46e-04 4.55e-13  9.19e-01     1s
   8   4.27396868e+04 -7.91391326e+04  3.11e-04 2.27e-13  4.86e-01     1s
   9   3.07361096e+04 -1.80129304e+04  1.84e-04 4.55e-13  1.94e-01     1s
  10   2.39717772e+04 -4.70161839e+03  1.15e-04 2.27e-13  1.14e-01     1s
  11   1.91928504e+04  4.54985935e+03  6.98e-05 4.55e-13  5.84e-02     1s
  12   1.55582892e+04  7.71303530e+03  3.67e-05 2.27e-13  3.13e-02     1s
  13   1.37810276e+04  9.22091060e+03  2.16e-05 2.27e-13  1.82e-02     1s
  14   1.29498544e+04  9.94826403e+03  1.45e-05 2.27e-13  1.20e-02     1s
  15   1.23790441e+04  1.03323452e+04  9.70e-06 4.55e-13  8.16e-03     1s
  16   1.20353511e+04  1.06621557e+04  6.90e-06 4.55e-13  5.47e-03     1s
  17   1.17328978e+04  1.08404227e+04  4.49e-06 4.55e-13  3.56e-03     1s
  18   1.14485031e+04  1.09599640e+04  2.37e-06 4.55e-13  1.95e-03     1s
  19   1.13421938e+04  1.10310399e+04  1.51e-06 4.55e-13  1.24e-03     1s
  20   1.12534714e+04  1.10779088e+04  8.17e-07 4.55e-13  7.00e-04     1s
  21   1.12235894e+04  1.11060449e+04  5.89e-07 4.55e-13  4.69e-04     1s
  22   1.11816764e+04  1.11319924e+04  2.68e-07 4.55e-13  1.98e-04     1s
  23   1.11563066e+04  1.11389742e+04  8.39e-08 4.55e-13  6.91e-05     1s
  24   1.11479664e+04  1.11418378e+04  2.49e-08 9.09e-13  2.44e-05     1s
  25   1.11450740e+04  1.11432791e+04  5.49e-09 4.55e-13  7.16e-06     1s
  26   1.11446626e+04  1.11438704e+04  3.00e-09 4.55e-13  3.16e-06     1s
  27   1.11442872e+04  1.11440986e+04  7.68e-10 4.55e-13  7.52e-07     1s
  28   1.11441789e+04  1.11441417e+04  1.30e-09 4.55e-13  1.48e-07     2s
  29   1.11441510e+04  1.11441493e+04  3.19e-09 4.55e-13  6.80e-09     2s
  30   1.11441502e+04  1.11441500e+04  1.06e-09 4.55e-13  9.19e-10     2s
  31   1.11441502e+04  1.11441502e+04  2.94e-09 4.55e-13  1.06e-11     2s

Barrier solved model in 31 iterations and 1.63 seconds (1.43 work units)
Optimal objective 1.11441502e+04

Crossover log...

   20077 DPushes remaining with DInf 0.0000000e+00                 2s
       0 DPushes remaining with DInf 0.0000000e+00                 2s

    1554 PPushes remaining with PInf 0.0000000e+00                 2s
       0 PPushes remaining with PInf 0.0000000e+00                 2s

  Push phase complete: Pinf 0.0000000e+00, Dinf 2.8099717e-11      2s

Extra simplex iterations after uncrush: 1
Iteration    Objective       Primal Inf.    Dual Inf.      Time
    6996    1.1144150e+04   0.000000e+00   0.000000e+00      2s

Solved in 6996 iterations and 2.48 seconds (1.87 work units)
Optimal objective  1.114415015e+04
